p cnf 836 2777
a 2 3 4 5 6 7 8 12 17 19 21 22 23 26 28 30 31 33 35 37 38 40 42 44 46 48 50 52 55 56 63 65 69 73 75 77 81 88 93 98 101 102 109 110 114 118 119 122 126 130 132 134 136 138 139 143 147 149 153 157 162 164 168 170 171 174 178 182 183 184 187 189 191 192 194 196 198 199 201 203 205 207 209 211 213 216 217 224 226 230 234 236 238 242 0
e 1 9 10 11 13 14 15 16 18 20 24 25 27 29 32 34 36 39 41 43 45 47 49 51 53 54 57 58 59 60 61 62 64 66 67 68 70 71 72 74 76 78 79 80 82 83 84 85 86 87 89 90 91 92 94 95 96 97 99 100 103 104 105 106 107 108 111 112 113 115 116 117 120 121 123 124 125 127 128 129 131 133 135 137 140 141 142 144 145 146 148 150 151 152 154 155 156 158 159 160 161 163 165 166 167 169 172 173 175 176 177 179 180 181 185 186 188 190 193 195 197 200 202 204 206 208 210 212 214 215 218 219 220 221 222 223 225 227 228 229 231 232 233 235 237 239 240 241 243 244 245 246 247 248 249 250 251 252 253 254 255 256 257 258 259 260 261 262 263 264 265 266 267 268 269 270 271 272 273 274 275 276 277 278 279 280 281 282 283 284 285 286 287 288 289 290 291 292 293 294 295 296 297 298 299 300 301 302 303 304 305 306 307 308 309 310 311 312 313 314 315 316 317 318 319 320 321 322 323 324 325 326 327 328 329 330 331 332 333 334 335 336 337 338 339 340 341 342 343 344 345 346 347 348 349 350 351 352 353 354 355 356 357 358 359 360 361 362 363 364 365 366 367 368 369 370 371 372 373 374 375 376 377 378 379 380 381 382 383 384 385 386 387 388 389 390 391 392 393 394 395 396 397 398 399 400 401 402 403 404 405 406 407 408 409 410 411 412 413 414 415 416 417 418 419 420 421 422 423 424 425 426 427 428 429 430 431 432 433 434 435 436 437 438 439 440 441 442 443 444 445 446 447 448 449 450 451 452 453 454 455 456 457 458 459 460 461 462 463 464 465 466 467 468 469 470 471 472 473 474 475 476 477 478 479 480 481 482 483 484 485 486 487 488 489 490 491 492 493 494 495 496 497 498 499 500 501 502 503 504 505 506 507 508 509 510 511 512 513 514 515 516 517 518 519 520 521 522 523 524 525 526 527 528 529 530 531 532 533 534 535 536 537 538 539 540 541 542 543 544 545 546 547 548 549 550 551 552 553 554 555 556 557 558 559 560 561 562 563 564 565 566 567 568 569 570 571 572 573 574 575 576 577 578 579 580 581 582 583 584 585 586 587 588 589 590 591 592 593 594 595 596 597 598 599 600 601 602 603 604 605 606 607 608 609 610 611 612 613 614 615 616 617 618 619 620 621 622 623 624 625 626 627 628 629 630 631 632 633 634 635 636 637 638 639 640 641 642 643 644 645 646 647 648 649 650 651 652 653 654 655 656 657 658 659 660 661 662 663 664 665 666 667 668 669 670 671 672 673 674 675 676 677 678 679 680 681 682 683 684 685 686 687 688 689 690 691 692 693 694 695 696 697 698 699 700 701 702 703 704 705 706 707 708 709 710 711 712 713 714 715 716 717 718 719 720 721 722 723 724 725 726 727 728 729 730 731 732 733 734 735 736 737 738 739 740 741 742 743 744 745 746 747 748 749 750 751 752 753 754 755 756 757 758 759 760 761 762 763 764 765 766 767 768 769 770 771 772 773 774 775 776 777 778 779 780 781 782 783 784 785 786 787 788 789 790 791 792 793 794 795 796 797 798 799 800 801 802 803 804 805 806 807 808 809 810 811 812 813 814 815 816 817 818 819 820 821 822 823 824 825 826 827 828 829 830 831 832 833 834 835 836 0
1 0
7 -9 0
8 -9 0
-7 -8 9 0
7 -10 0
-8 -10 0
-7 8 10 0
7 11 0
-9 11 0
-10 11 0
-7 9 10 -11 0
-12 13 0
12 13 0
6 -14 0
11 -14 0
13 -14 0
-6 -11 -13 14 0
-6 -15 0
11 -15 0
6 -11 15 0
-14 16 0
-15 16 0
14 15 -16 0
-17 18 0
17 18 0
-19 20 0
19 20 0
22 -24 0
-23 -24 0
-22 23 24 0
22 25 0
-24 25 0
-22 24 -25 0
-26 27 0
26 27 0
27 -29 0
28 -29 0
-27 -28 29 0
-31 32 0
31 32 0
32 -34 0
-33 -34 0
-32 33 34 0
32 -36 0
33 -36 0
35 -36 0
-32 -33 -35 36 0
32 -39 0
33 -39 0
-35 -39 0
37 -39 0
38 -39 0
-32 -33 35 -37 -38 39 0
32 -41 0
33 -41 0
-35 -41 0
37 -41 0
-38 -41 0
-40 -41 0
-32 -33 35 -37 38 40 41 0
32 -43 0
33 -43 0
-35 -43 0
-37 -43 0
-42 -43 0
-32 -33 35 37 42 43 0
32 -45 0
33 -45 0
-35 -45 0
-37 -45 0
42 -45 0
44 -45 0
-32 -33 35 37 -42 -44 45 0
32 -47 0
33 -47 0
-35 -47 0
37 -47 0
-38 -47 0
40 -47 0
46 -47 0
-32 -33 35 -37 38 -40 -46 47 0
32 -49 0
33 -49 0
-35 -49 0
37 -49 0
-38 -49 0
40 -49 0
-46 -49 0
48 -49 0
-32 -33 35 -37 38 -40 46 -48 49 0
-50 51 0
50 51 0
32 -53 0
33 -53 0
-35 -53 0
-37 -53 0
42 -53 0
-44 -53 0
51 -53 0
52 -53 0
-32 -33 35 37 -42 44 -51 -52 53 0
32 -54 0
33 -54 0
-35 -54 0
-37 -54 0
42 -54 0
-44 -54 0
51 -54 0
-52 -54 0
-32 -33 35 37 -42 44 -51 52 54 0
55 -57 0
56 -57 0
-55 -56 57 0
55 -58 0
-56 -58 0
-55 56 58 0
55 59 0
-57 59 0
-58 59 0
-55 57 58 -59 0
32 -60 0
33 -60 0
-35 -60 0
37 -60 0
-38 -60 0
40 -60 0
-46 -60 0
-48 -60 0
59 -60 0
-32 -33 35 -37 38 -40 46 48 -59 60 0
-34 61 0
-36 61 0
-39 61 0
-41 61 0
-43 61 0
-45 61 0
-47 61 0
-49 61 0
-53 61 0
-54 61 0
-60 61 0
34 36 39 41 43 45 47 49 53 54 60 -61 0
27 -62 0
-28 -62 0
-30 -62 0
61 -62 0
-27 28 30 -61 62 0
27 -64 0
-28 -64 0
30 -64 0
-63 -64 0
-27 28 -30 63 64 0
27 -66 0
-28 -66 0
30 -66 0
63 -66 0
-65 -66 0
-27 28 -30 -63 65 66 0
27 -67 0
-28 -67 0
30 -67 0
63 -67 0
65 -67 0
-27 28 -30 -63 -65 67 0
-62 68 0
-64 68 0
-66 68 0
-67 68 0
62 64 66 67 -68 0
68 -70 0
69 -70 0
-68 -69 70 0
68 -71 0
-69 -71 0
-68 69 71 0
-29 72 0
-70 72 0
-71 72 0
29 70 71 -72 0
-73 74 0
73 74 0
21 -76 0
25 -76 0
72 -76 0
74 -76 0
75 -76 0
-21 -25 -72 -74 -75 76 0
-77 78 0
77 78 0
21 -79 0
25 -79 0
72 -79 0
74 -79 0
-75 -79 0
78 -79 0
-21 -25 -72 -74 75 -78 79 0
-76 80 0
-79 80 0
76 79 -80 0
80 -82 0
81 -82 0
-80 -81 82 0
80 -83 0
-81 -83 0
-80 81 83 0
21 84 0
-82 84 0
-83 84 0
-21 82 83 -84 0
5 -85 0
16 -85 0
18 -85 0
20 -85 0
84 -85 0
-5 -16 -18 -20 -84 85 0
-5 -86 0
16 -86 0
18 -86 0
20 -86 0
5 -16 -18 -20 86 0
-85 87 0
-86 87 0
85 86 -87 0
88 89 0
-88 89 0
4 -90 0
87 -90 0
89 -90 0
-4 -87 -89 90 0
-4 -91 0
87 -91 0
4 -87 91 0
-90 92 0
-91 92 0
90 91 -92 0
93 94 0
-93 94 0
3 -95 0
92 -95 0
94 -95 0
-3 -92 -94 95 0
-3 -96 0
92 -96 0
3 -92 96 0
-95 97 0
-96 97 0
95 96 -97 0
98 99 0
-98 99 0
2 -100 0
97 -100 0
99 -100 0
-2 -97 -99 100 0
102 103 0
-102 103 0
101 -104 0
97 -104 0
103 -104 0
-101 -97 -103 104 0
-101 -105 0
97 -105 0
101 -97 105 0
-104 106 0
-105 106 0
104 105 -106 0
-2 -107 0
106 -107 0
2 -106 107 0
-100 108 0
-107 108 0
100 107 -108 0
109 -111 0
110 -111 0
-109 -110 111 0
109 -112 0
-110 -112 0
-109 110 112 0
-111 113 0
-112 113 0
111 112 -113 0
113 -115 0
114 -115 0
-113 -114 115 0
113 -116 0
-114 -116 0
-113 114 116 0
-115 117 0
-116 117 0
115 116 -117 0
117 -120 0
-118 -120 0
119 -120 0
-117 118 -119 120 0
117 -121 0
-118 -121 0
-119 -121 0
-117 118 119 121 0
117 -123 0
118 -123 0
122 -123 0
-117 -118 -122 123 0
117 -124 0
118 -124 0
-122 -124 0
-117 -118 122 124 0
-120 125 0
-121 125 0
-123 125 0
-124 125 0
120 121 123 124 -125 0
125 -127 0
126 -127 0
-125 -126 127 0
125 -128 0
-126 -128 0
-125 126 128 0
-127 129 0
-128 129 0
127 128 -129 0
129 -131 0
130 -131 0
-129 -130 131 0
129 -133 0
-130 -133 0
132 -133 0
-129 130 -132 133 0
129 -135 0
-130 -135 0
-132 -135 0
134 -135 0
-129 130 132 -134 135 0
129 -137 0
-130 -137 0
-132 -137 0
-134 -137 0
136 -137 0
-129 130 132 134 -136 137 0
129 -140 0
-130 -140 0
-132 -140 0
-134 -140 0
-136 -140 0
138 -140 0
139 -140 0
-129 130 132 134 136 -138 -139 140 0
129 -141 0
-130 -141 0
-132 -141 0
-134 -141 0
-136 -141 0
138 -141 0
-139 -141 0
-129 130 132 134 136 -138 139 141 0
-140 142 0
-141 142 0
140 141 -142 0
142 -144 0
143 -144 0
-142 -143 144 0
142 -145 0
-143 -145 0
-142 143 145 0
-144 146 0
-145 146 0
144 145 -146 0
146 -148 0
147 -148 0
-146 -147 148 0
129 -150 0
-130 -150 0
-132 -150 0
-134 -150 0
-136 -150 0
-138 -150 0
149 -150 0
-129 130 132 134 136 138 -149 150 0
129 -151 0
-130 -151 0
-132 -151 0
-134 -151 0
-136 -151 0
-138 -151 0
-149 -151 0
-129 130 132 134 136 138 149 151 0
-150 152 0
-151 152 0
150 151 -152 0
152 -154 0
153 -154 0
-152 -153 154 0
152 -155 0
-153 -155 0
-152 153 155 0
-154 156 0
-155 156 0
154 155 -156 0
156 -158 0
157 -158 0
-156 -157 158 0
146 -159 0
-147 -159 0
-146 147 159 0
156 -160 0
-157 -160 0
-156 157 160 0
-148 161 0
-158 161 0
-159 161 0
-160 161 0
148 158 159 160 -161 0
161 -163 0
-162 -163 0
-161 162 163 0
161 -165 0
162 -165 0
164 -165 0
-161 -162 -164 165 0
161 -166 0
162 -166 0
-164 -166 0
-161 -162 164 166 0
109 167 0
-131 167 0
-133 167 0
-135 167 0
-137 167 0
-163 167 0
-165 167 0
-166 167 0
-109 131 133 135 137 163 165 166 -167 0
168 169 0
-168 169 0
169 -172 0
-170 -172 0
171 -172 0
-169 170 -171 172 0
169 -173 0
-170 -173 0
-171 -173 0
-169 170 171 173 0
169 -175 0
170 -175 0
174 -175 0
-169 -170 -174 175 0
169 -176 0
170 -176 0
-174 -176 0
-169 -170 174 176 0
-172 177 0
-173 177 0
-175 177 0
-176 177 0
172 173 175 176 -177 0
177 -179 0
178 -179 0
-177 -178 179 0
177 -180 0
-178 -180 0
-177 178 180 0
-179 181 0
-180 181 0
179 180 -181 0
183 -185 0
-184 -185 0
-183 184 185 0
183 186 0
-185 186 0
-183 185 -186 0
-187 188 0
187 188 0
188 -190 0
189 -190 0
-188 -189 190 0
-192 193 0
192 193 0
193 -195 0
-194 -195 0
-193 194 195 0
193 -197 0
194 -197 0
196 -197 0
-193 -194 -196 197 0
193 -200 0
194 -200 0
-196 -200 0
198 -200 0
199 -200 0
-193 -194 196 -198 -199 200 0
193 -202 0
194 -202 0
-196 -202 0
198 -202 0
-199 -202 0
-201 -202 0
-193 -194 196 -198 199 201 202 0
193 -204 0
194 -204 0
-196 -204 0
-198 -204 0
-203 -204 0
-193 -194 196 198 203 204 0
193 -206 0
194 -206 0
-196 -206 0
-198 -206 0
203 -206 0
205 -206 0
-193 -194 196 198 -203 -205 206 0
193 -208 0
194 -208 0
-196 -208 0
198 -208 0
-199 -208 0
201 -208 0
207 -208 0
-193 -194 196 -198 199 -201 -207 208 0
193 -210 0
194 -210 0
-196 -210 0
198 -210 0
-199 -210 0
201 -210 0
-207 -210 0
209 -210 0
-193 -194 196 -198 199 -201 207 -209 210 0
-211 212 0
211 212 0
193 -214 0
194 -214 0
-196 -214 0
-198 -214 0
203 -214 0
-205 -214 0
212 -214 0
213 -214 0
-193 -194 196 198 -203 205 -212 -213 214 0
193 -215 0
194 -215 0
-196 -215 0
-198 -215 0
203 -215 0
-205 -215 0
212 -215 0
-213 -215 0
-193 -194 196 198 -203 205 -212 213 215 0
216 -218 0
217 -218 0
-216 -217 218 0
216 -219 0
-217 -219 0
-216 217 219 0
216 220 0
-218 220 0
-219 220 0
-216 218 219 -220 0
193 -221 0
194 -221 0
-196 -221 0
198 -221 0
-199 -221 0
201 -221 0
-207 -221 0
-209 -221 0
220 -221 0
-193 -194 196 -198 199 -201 207 209 -220 221 0
-195 222 0
-197 222 0
-200 222 0
-202 222 0
-204 222 0
-206 222 0
-208 222 0
-210 222 0
-214 222 0
-215 222 0
-221 222 0
195 197 200 202 204 206 208 210 214 215 221 -222 0
188 -223 0
-189 -223 0
-191 -223 0
222 -223 0
-188 189 191 -222 223 0
188 -225 0
-189 -225 0
191 -225 0
-224 -225 0
-188 189 -191 224 225 0
188 -227 0
-189 -227 0
191 -227 0
224 -227 0
-226 -227 0
-188 189 -191 -224 226 227 0
188 -228 0
-189 -228 0
191 -228 0
224 -228 0
226 -228 0
-188 189 -191 -224 -226 228 0
-223 229 0
-225 229 0
-227 229 0
-228 229 0
223 225 227 228 -229 0
229 -231 0
230 -231 0
-229 -230 231 0
229 -232 0
-230 -232 0
-229 230 232 0
-190 233 0
-231 233 0
-232 233 0
190 231 232 -233 0
-234 235 0
234 235 0
182 -237 0
186 -237 0
233 -237 0
235 -237 0
236 -237 0
-182 -186 -233 -235 -236 237 0
-238 239 0
238 239 0
182 -240 0
186 -240 0
233 -240 0
235 -240 0
-236 -240 0
239 -240 0
-182 -186 -233 -235 236 -239 240 0
-237 241 0
-240 241 0
237 240 -241 0
241 -243 0
242 -243 0
-241 -242 243 0
241 -244 0
-242 -244 0
-241 242 244 0
182 245 0
-243 245 0
-244 245 0
-182 243 244 -245 0
108 -246 0
167 -246 0
181 -246 0
245 -246 0
-108 -167 -181 -245 246 0
-12 247 0
12 247 0
6 -248 0
247 -248 0
-6 -247 248 0
-248 249 0
6 249 0
248 -6 -249 0
249 -250 0
-21 -250 0
-249 21 250 0
249 -251 0
27 -251 0
28 -251 0
-249 -27 -28 251 0
249 -252 0
27 -252 0
-28 -252 0
30 -252 0
63 -252 0
-65 -252 0
-249 -27 28 -30 -63 65 252 0
249 -253 0
27 -253 0
-28 -253 0
30 -253 0
63 -253 0
65 -253 0
-249 -27 28 -30 -63 -65 253 0
249 -254 0
27 -254 0
-28 -254 0
30 -254 0
-63 -254 0
-249 -27 28 -30 63 254 0
249 -255 0
31 -255 0
-249 -31 255 0
249 -256 0
-31 -256 0
-249 31 256 0
-255 257 0
-256 257 0
255 256 -257 0
-34 258 0
-36 258 0
-39 258 0
-41 258 0
-43 258 0
-45 258 0
-47 258 0
-49 258 0
34 36 39 41 43 45 47 49 -258 0
257 -259 0
258 -259 0
-257 -258 259 0
257 -260 0
32 -260 0
33 -260 0
-35 -260 0
37 -260 0
-38 -260 0
40 -260 0
-46 -260 0
-48 -260 0
59 -260 0
-257 -32 -33 35 -37 38 -40 46 48 -59 260 0
-53 261 0
-54 261 0
53 54 -261 0
257 -262 0
261 -262 0
-257 -261 262 0
-259 263 0
-260 263 0
-262 263 0
259 260 262 -263 0
263 -264 0
27 -264 0
-28 -264 0
-30 -264 0
61 -264 0
-263 -27 28 30 -61 264 0
-252 265 0
-253 265 0
-254 265 0
-264 265 0
252 253 254 264 -265 0
265 -266 0
68 -266 0
69 -266 0
-265 -68 -69 266 0
265 -267 0
68 -267 0
-69 -267 0
-265 -68 69 267 0
-251 268 0
-266 268 0
-267 268 0
251 266 267 -268 0
268 -269 0
21 -269 0
25 -269 0
72 -269 0
74 -269 0
75 -269 0
-268 -21 -25 -72 -74 -75 269 0
268 -270 0
21 -270 0
25 -270 0
72 -270 0
74 -270 0
-75 -270 0
78 -270 0
-268 -21 -25 -72 -74 75 -78 270 0
-269 271 0
-270 271 0
269 270 -271 0
-82 272 0
-83 272 0
82 83 -272 0
271 -273 0
272 -273 0
-271 -272 273 0
-250 274 0
-273 274 0
250 273 -274 0
5 -275 0
274 -275 0
-5 -274 275 0
-5 -276 0
249 -276 0
5 -249 276 0
-275 277 0
-276 277 0
275 276 -277 0
277 -278 0
-88 -278 0
-277 88 278 0
277 -279 0
88 -279 0
-277 -88 279 0
-278 280 0
-279 280 0
278 279 -280 0
4 -281 0
280 -281 0
-4 -280 281 0
-4 -282 0
277 -282 0
4 -277 282 0
-281 283 0
-282 283 0
281 282 -283 0
283 -284 0
-93 -284 0
-283 93 284 0
283 -285 0
93 -285 0
-283 -93 285 0
-284 286 0
-285 286 0
284 285 -286 0
3 -287 0
286 -287 0
-3 -286 287 0
-3 -288 0
283 -288 0
3 -283 288 0
-287 289 0
-288 289 0
287 288 -289 0
289 -290 0
-98 -290 0
-289 98 290 0
289 -291 0
98 -291 0
-289 -98 291 0
-290 292 0
-291 292 0
290 291 -292 0
2 -293 0
292 -293 0
-2 -292 293 0
289 -294 0
-102 -294 0
-289 102 294 0
289 -295 0
102 -295 0
-289 -102 295 0
-294 296 0
-295 296 0
294 295 -296 0
101 -297 0
296 -297 0
-101 -296 297 0
-101 -298 0
289 -298 0
101 -289 298 0
-297 299 0
-298 299 0
297 298 -299 0
-2 -300 0
299 -300 0
2 -299 300 0
-293 301 0
-300 301 0
293 300 -301 0
301 -302 0
-109 -302 0
-301 109 302 0
301 -303 0
109 -303 0
110 -303 0
-301 -109 -110 303 0
301 -304 0
109 -304 0
-110 -304 0
-301 -109 110 304 0
-303 305 0
-304 305 0
303 304 -305 0
305 -306 0
113 -306 0
114 -306 0
-305 -113 -114 306 0
305 -307 0
113 -307 0
-114 -307 0
-305 -113 114 307 0
-306 308 0
-307 308 0
306 307 -308 0
308 -309 0
125 -309 0
126 -309 0
-308 -125 -126 309 0
308 -310 0
125 -310 0
-126 -310 0
-308 -125 126 310 0
-309 311 0
-310 311 0
309 310 -311 0
-131 312 0
-133 312 0
-135 312 0
-137 312 0
131 133 135 137 -312 0
311 -313 0
312 -313 0
-311 -312 313 0
311 -314 0
129 -314 0
-130 -314 0
-132 -314 0
-134 -314 0
-136 -314 0
-138 -314 0
149 -314 0
-311 -129 130 132 134 136 138 -149 314 0
311 -315 0
129 -315 0
-130 -315 0
-132 -315 0
-134 -315 0
-136 -315 0
-138 -315 0
-149 -315 0
-311 -129 130 132 134 136 138 149 315 0
-314 316 0
-315 316 0
314 315 -316 0
316 -317 0
152 -317 0
153 -317 0
-316 -152 -153 317 0
316 -318 0
152 -318 0
-153 -318 0
-316 -152 153 318 0
-317 319 0
-318 319 0
317 318 -319 0
319 -320 0
156 -320 0
157 -320 0
-319 -156 -157 320 0
319 -321 0
156 -321 0
-157 -321 0
-319 -156 157 321 0
311 -322 0
129 -322 0
-130 -322 0
-132 -322 0
-134 -322 0
-136 -322 0
138 -322 0
139 -322 0
-311 -129 130 132 134 136 -138 -139 322 0
311 -323 0
129 -323 0
-130 -323 0
-132 -323 0
-134 -323 0
-136 -323 0
138 -323 0
-139 -323 0
-311 -129 130 132 134 136 -138 139 323 0
-322 324 0
-323 324 0
322 323 -324 0
324 -325 0
142 -325 0
143 -325 0
-324 -142 -143 325 0
324 -326 0
142 -326 0
-143 -326 0
-324 -142 143 326 0
-325 327 0
-326 327 0
325 326 -327 0
327 -328 0
146 -328 0
147 -328 0
-327 -146 -147 328 0
327 -329 0
146 -329 0
-147 -329 0
-327 -146 147 329 0
-320 330 0
-321 330 0
-328 330 0
-329 330 0
320 321 328 329 -330 0
-165 331 0
-166 331 0
165 166 -331 0
-163 332 0
-331 332 0
163 331 -332 0
330 -333 0
332 -333 0
-330 -332 333 0
-302 334 0
-313 334 0
-333 334 0
302 313 333 -334 0
334 -335 0
-168 -335 0
-334 168 335 0
334 -336 0
168 -336 0
-334 -168 336 0
-335 337 0
-336 337 0
335 336 -337 0
337 -338 0
-182 -338 0
-337 182 338 0
337 -339 0
188 -339 0
189 -339 0
-337 -188 -189 339 0
337 -340 0
188 -340 0
-189 -340 0
191 -340 0
224 -340 0
-226 -340 0
-337 -188 189 -191 -224 226 340 0
337 -341 0
188 -341 0
-189 -341 0
191 -341 0
224 -341 0
226 -341 0
-337 -188 189 -191 -224 -226 341 0
337 -342 0
188 -342 0
-189 -342 0
191 -342 0
-224 -342 0
-337 -188 189 -191 224 342 0
337 -343 0
192 -343 0
-337 -192 343 0
337 -344 0
-192 -344 0
-337 192 344 0
-343 345 0
-344 345 0
343 344 -345 0
-195 346 0
-197 346 0
-200 346 0
-202 346 0
-204 346 0
-206 346 0
-208 346 0
-210 346 0
195 197 200 202 204 206 208 210 -346 0
345 -347 0
346 -347 0
-345 -346 347 0
345 -348 0
193 -348 0
194 -348 0
-196 -348 0
198 -348 0
-199 -348 0
201 -348 0
-207 -348 0
-209 -348 0
220 -348 0
-345 -193 -194 196 -198 199 -201 207 209 -220 348 0
-214 349 0
-215 349 0
214 215 -349 0
345 -350 0
349 -350 0
-345 -349 350 0
-347 351 0
-348 351 0
-350 351 0
347 348 350 -351 0
351 -352 0
188 -352 0
-189 -352 0
-191 -352 0
222 -352 0
-351 -188 189 191 -222 352 0
-340 353 0
-341 353 0
-342 353 0
-352 353 0
340 341 342 352 -353 0
353 -354 0
229 -354 0
230 -354 0
-353 -229 -230 354 0
353 -355 0
229 -355 0
-230 -355 0
-353 -229 230 355 0
-339 356 0
-354 356 0
-355 356 0
339 354 355 -356 0
356 -357 0
182 -357 0
186 -357 0
233 -357 0
235 -357 0
236 -357 0
-356 -182 -186 -233 -235 -236 357 0
356 -358 0
182 -358 0
186 -358 0
233 -358 0
235 -358 0
-236 -358 0
239 -358 0
-356 -182 -186 -233 -235 236 -239 358 0
-357 359 0
-358 359 0
357 358 -359 0
-243 360 0
-244 360 0
243 244 -360 0
359 -361 0
360 -361 0
-359 -360 361 0
-338 362 0
-361 362 0
338 361 -362 0
-12 363 0
12 363 0
6 -364 0
363 -364 0
-6 -363 364 0
-364 365 0
6 365 0
364 -6 -365 0
365 -366 0
-21 -366 0
-365 21 366 0
365 -367 0
27 -367 0
28 -367 0
-365 -27 -28 367 0
365 -368 0
27 -368 0
-28 -368 0
30 -368 0
63 -368 0
-65 -368 0
-365 -27 28 -30 -63 65 368 0
365 -369 0
27 -369 0
-28 -369 0
30 -369 0
63 -369 0
65 -369 0
-365 -27 28 -30 -63 -65 369 0
365 -370 0
27 -370 0
-28 -370 0
30 -370 0
-63 -370 0
-365 -27 28 -30 63 370 0
365 -371 0
31 -371 0
-365 -31 371 0
365 -372 0
-31 -372 0
-365 31 372 0
-371 373 0
-372 373 0
371 372 -373 0
-34 374 0
-36 374 0
-39 374 0
-41 374 0
-43 374 0
-45 374 0
-47 374 0
-49 374 0
34 36 39 41 43 45 47 49 -374 0
373 -375 0
374 -375 0
-373 -374 375 0
373 -376 0
32 -376 0
33 -376 0
-35 -376 0
37 -376 0
-38 -376 0
40 -376 0
-46 -376 0
-48 -376 0
59 -376 0
-373 -32 -33 35 -37 38 -40 46 48 -59 376 0
373 -377 0
261 -377 0
-373 -261 377 0
-375 378 0
-376 378 0
-377 378 0
375 376 377 -378 0
378 -379 0
27 -379 0
-28 -379 0
-30 -379 0
61 -379 0
-378 -27 28 30 -61 379 0
-368 380 0
-369 380 0
-370 380 0
-379 380 0
368 369 370 379 -380 0
380 -381 0
68 -381 0
69 -381 0
-380 -68 -69 381 0
380 -382 0
68 -382 0
-69 -382 0
-380 -68 69 382 0
-367 383 0
-381 383 0
-382 383 0
367 381 382 -383 0
383 -384 0
21 -384 0
25 -384 0
72 -384 0
74 -384 0
75 -384 0
-383 -21 -25 -72 -74 -75 384 0
383 -385 0
21 -385 0
25 -385 0
72 -385 0
74 -385 0
-75 -385 0
78 -385 0
-383 -21 -25 -72 -74 75 -78 385 0
-384 386 0
-385 386 0
384 385 -386 0
386 -387 0
272 -387 0
-386 -272 387 0
-366 388 0
-387 388 0
366 387 -388 0
5 -389 0
388 -389 0
-5 -388 389 0
-5 -390 0
365 -390 0
5 -365 390 0
-389 391 0
-390 391 0
389 390 -391 0
391 -392 0
-88 -392 0
-391 88 392 0
391 -393 0
88 -393 0
-391 -88 393 0
-392 394 0
-393 394 0
392 393 -394 0
4 -395 0
394 -395 0
-4 -394 395 0
-4 -396 0
391 -396 0
4 -391 396 0
-395 397 0
-396 397 0
395 396 -397 0
397 -398 0
-93 -398 0
-397 93 398 0
397 -399 0
93 -399 0
-397 -93 399 0
-398 400 0
-399 400 0
398 399 -400 0
3 -401 0
400 -401 0
-3 -400 401 0
-3 -402 0
397 -402 0
3 -397 402 0
-401 403 0
-402 403 0
401 402 -403 0
403 -404 0
-98 -404 0
-403 98 404 0
403 -405 0
98 -405 0
-403 -98 405 0
-404 406 0
-405 406 0
404 405 -406 0
2 -407 0
406 -407 0
-2 -406 407 0
403 -408 0
-102 -408 0
-403 102 408 0
403 -409 0
102 -409 0
-403 -102 409 0
-408 410 0
-409 410 0
408 409 -410 0
101 -411 0
410 -411 0
-101 -410 411 0
-101 -412 0
403 -412 0
101 -403 412 0
-411 413 0
-412 413 0
411 412 -413 0
-2 -414 0
413 -414 0
2 -413 414 0
-407 415 0
-414 415 0
407 414 -415 0
415 -416 0
-109 -416 0
-415 109 416 0
415 -417 0
109 -417 0
110 -417 0
-415 -109 -110 417 0
415 -418 0
109 -418 0
-110 -418 0
-415 -109 110 418 0
-417 419 0
-418 419 0
417 418 -419 0
419 -420 0
113 -420 0
114 -420 0
-419 -113 -114 420 0
419 -421 0
113 -421 0
-114 -421 0
-419 -113 114 421 0
-420 422 0
-421 422 0
420 421 -422 0
422 -423 0
125 -423 0
126 -423 0
-422 -125 -126 423 0
422 -424 0
125 -424 0
-126 -424 0
-422 -125 126 424 0
-423 425 0
-424 425 0
423 424 -425 0
-131 426 0
-133 426 0
-135 426 0
-137 426 0
131 133 135 137 -426 0
425 -427 0
426 -427 0
-425 -426 427 0
425 -428 0
129 -428 0
-130 -428 0
-132 -428 0
-134 -428 0
-136 -428 0
-138 -428 0
149 -428 0
-425 -129 130 132 134 136 138 -149 428 0
425 -429 0
129 -429 0
-130 -429 0
-132 -429 0
-134 -429 0
-136 -429 0
-138 -429 0
-149 -429 0
-425 -129 130 132 134 136 138 149 429 0
-428 430 0
-429 430 0
428 429 -430 0
430 -431 0
152 -431 0
153 -431 0
-430 -152 -153 431 0
430 -432 0
152 -432 0
-153 -432 0
-430 -152 153 432 0
-431 433 0
-432 433 0
431 432 -433 0
433 -434 0
156 -434 0
157 -434 0
-433 -156 -157 434 0
433 -435 0
156 -435 0
-157 -435 0
-433 -156 157 435 0
425 -436 0
129 -436 0
-130 -436 0
-132 -436 0
-134 -436 0
-136 -436 0
138 -436 0
139 -436 0
-425 -129 130 132 134 136 -138 -139 436 0
425 -437 0
129 -437 0
-130 -437 0
-132 -437 0
-134 -437 0
-136 -437 0
138 -437 0
-139 -437 0
-425 -129 130 132 134 136 -138 139 437 0
-436 438 0
-437 438 0
436 437 -438 0
438 -439 0
142 -439 0
143 -439 0
-438 -142 -143 439 0
438 -440 0
142 -440 0
-143 -440 0
-438 -142 143 440 0
-439 441 0
-440 441 0
439 440 -441 0
441 -442 0
146 -442 0
147 -442 0
-441 -146 -147 442 0
441 -443 0
146 -443 0
-147 -443 0
-441 -146 147 443 0
-434 444 0
-435 444 0
-442 444 0
-443 444 0
434 435 442 443 -444 0
-163 445 0
-331 445 0
163 331 -445 0
444 -446 0
445 -446 0
-444 -445 446 0
-416 447 0
-427 447 0
-446 447 0
416 427 446 -447 0
447 -448 0
-168 -448 0
-447 168 448 0
447 -449 0
168 -449 0
-447 -168 449 0
-448 450 0
-449 450 0
448 449 -450 0
450 -451 0
-182 -451 0
-450 182 451 0
450 -452 0
188 -452 0
189 -452 0
-450 -188 -189 452 0
450 -453 0
188 -453 0
-189 -453 0
191 -453 0
224 -453 0
-226 -453 0
-450 -188 189 -191 -224 226 453 0
450 -454 0
188 -454 0
-189 -454 0
191 -454 0
224 -454 0
226 -454 0
-450 -188 189 -191 -224 -226 454 0
450 -455 0
188 -455 0
-189 -455 0
191 -455 0
-224 -455 0
-450 -188 189 -191 224 455 0
450 -456 0
192 -456 0
-450 -192 456 0
450 -457 0
-192 -457 0
-450 192 457 0
-456 458 0
-457 458 0
456 457 -458 0
-195 459 0
-197 459 0
-200 459 0
-202 459 0
-204 459 0
-206 459 0
-208 459 0
-210 459 0
195 197 200 202 204 206 208 210 -459 0
458 -460 0
459 -460 0
-458 -459 460 0
458 -461 0
193 -461 0
194 -461 0
-196 -461 0
198 -461 0
-199 -461 0
201 -461 0
-207 -461 0
-209 -461 0
220 -461 0
-458 -193 -194 196 -198 199 -201 207 209 -220 461 0
458 -462 0
349 -462 0
-458 -349 462 0
-460 463 0
-461 463 0
-462 463 0
460 461 462 -463 0
463 -464 0
188 -464 0
-189 -464 0
-191 -464 0
222 -464 0
-463 -188 189 191 -222 464 0
-453 465 0
-454 465 0
-455 465 0
-464 465 0
453 454 455 464 -465 0
465 -466 0
229 -466 0
230 -466 0
-465 -229 -230 466 0
465 -467 0
229 -467 0
-230 -467 0
-465 -229 230 467 0
-452 468 0
-466 468 0
-467 468 0
452 466 467 -468 0
468 -469 0
182 -469 0
186 -469 0
233 -469 0
235 -469 0
236 -469 0
-468 -182 -186 -233 -235 -236 469 0
468 -470 0
182 -470 0
186 -470 0
233 -470 0
235 -470 0
-236 -470 0
239 -470 0
-468 -182 -186 -233 -235 236 -239 470 0
-469 471 0
-470 471 0
469 470 -471 0
471 -472 0
360 -472 0
-471 -360 472 0
-451 473 0
-472 473 0
451 472 -473 0
479 -481 0
480 -481 0
-479 -480 481 0
479 -482 0
-480 -482 0
-479 480 482 0
479 483 0
-481 483 0
-482 483 0
-479 481 482 -483 0
-484 485 0
484 485 0
478 -486 0
483 -486 0
485 -486 0
-478 -483 -485 486 0
-478 -487 0
483 -487 0
478 -483 487 0
-486 488 0
-487 488 0
486 487 -488 0
-489 490 0
489 490 0
-491 492 0
491 492 0
494 -496 0
-495 -496 0
-494 495 496 0
494 497 0
-496 497 0
-494 496 -497 0
-498 499 0
498 499 0
499 -501 0
500 -501 0
-499 -500 501 0
-503 504 0
503 504 0
504 -506 0
-505 -506 0
-504 505 506 0
504 -508 0
505 -508 0
507 -508 0
-504 -505 -507 508 0
504 -511 0
505 -511 0
-507 -511 0
509 -511 0
510 -511 0
-504 -505 507 -509 -510 511 0
504 -513 0
505 -513 0
-507 -513 0
509 -513 0
-510 -513 0
-512 -513 0
-504 -505 507 -509 510 512 513 0
504 -515 0
505 -515 0
-507 -515 0
-509 -515 0
-514 -515 0
-504 -505 507 509 514 515 0
504 -517 0
505 -517 0
-507 -517 0
-509 -517 0
514 -517 0
516 -517 0
-504 -505 507 509 -514 -516 517 0
504 -519 0
505 -519 0
-507 -519 0
509 -519 0
-510 -519 0
512 -519 0
518 -519 0
-504 -505 507 -509 510 -512 -518 519 0
504 -521 0
505 -521 0
-507 -521 0
509 -521 0
-510 -521 0
512 -521 0
-518 -521 0
520 -521 0
-504 -505 507 -509 510 -512 518 -520 521 0
-522 523 0
522 523 0
504 -525 0
505 -525 0
-507 -525 0
-509 -525 0
514 -525 0
-516 -525 0
523 -525 0
524 -525 0
-504 -505 507 509 -514 516 -523 -524 525 0
504 -526 0
505 -526 0
-507 -526 0
-509 -526 0
514 -526 0
-516 -526 0
523 -526 0
-524 -526 0
-504 -505 507 509 -514 516 -523 524 526 0
527 -529 0
528 -529 0
-527 -528 529 0
527 -530 0
-528 -530 0
-527 528 530 0
527 531 0
-529 531 0
-530 531 0
-527 529 530 -531 0
504 -532 0
505 -532 0
-507 -532 0
509 -532 0
-510 -532 0
512 -532 0
-518 -532 0
-520 -532 0
531 -532 0
-504 -505 507 -509 510 -512 518 520 -531 532 0
-506 533 0
-508 533 0
-511 533 0
-513 533 0
-515 533 0
-517 533 0
-519 533 0
-521 533 0
-525 533 0
-526 533 0
-532 533 0
506 508 511 513 515 517 519 521 525 526 532 -533 0
499 -534 0
-500 -534 0
-502 -534 0
533 -534 0
-499 500 502 -533 534 0
499 -536 0
-500 -536 0
502 -536 0
-535 -536 0
-499 500 -502 535 536 0
499 -538 0
-500 -538 0
502 -538 0
535 -538 0
-537 -538 0
-499 500 -502 -535 537 538 0
499 -539 0
-500 -539 0
502 -539 0
535 -539 0
537 -539 0
-499 500 -502 -535 -537 539 0
-534 540 0
-536 540 0
-538 540 0
-539 540 0
534 536 538 539 -540 0
540 -542 0
541 -542 0
-540 -541 542 0
540 -543 0
-541 -543 0
-540 541 543 0
-501 544 0
-542 544 0
-543 544 0
501 542 543 -544 0
-545 546 0
545 546 0
493 -548 0
497 -548 0
544 -548 0
546 -548 0
547 -548 0
-493 -497 -544 -546 -547 548 0
-549 550 0
549 550 0
493 -551 0
497 -551 0
544 -551 0
546 -551 0
-547 -551 0
550 -551 0
-493 -497 -544 -546 547 -550 551 0
-548 552 0
-551 552 0
548 551 -552 0
552 -554 0
553 -554 0
-552 -553 554 0
552 -555 0
-553 -555 0
-552 553 555 0
493 556 0
-554 556 0
-555 556 0
-493 554 555 -556 0
477 -557 0
488 -557 0
490 -557 0
492 -557 0
556 -557 0
-477 -488 -490 -492 -556 557 0
-477 -558 0
488 -558 0
490 -558 0
492 -558 0
477 -488 -490 -492 558 0
-557 559 0
-558 559 0
557 558 -559 0
560 561 0
-560 561 0
476 -562 0
559 -562 0
561 -562 0
-476 -559 -561 562 0
-476 -563 0
559 -563 0
476 -559 563 0
-562 564 0
-563 564 0
562 563 -564 0
565 566 0
-565 566 0
475 -567 0
564 -567 0
566 -567 0
-475 -564 -566 567 0
-475 -568 0
564 -568 0
475 -564 568 0
-567 569 0
-568 569 0
567 568 -569 0
570 571 0
-570 571 0
474 -572 0
569 -572 0
571 -572 0
-474 -569 -571 572 0
574 575 0
-574 575 0
573 -576 0
569 -576 0
575 -576 0
-573 -569 -575 576 0
-573 -577 0
569 -577 0
573 -569 577 0
-576 578 0
-577 578 0
576 577 -578 0
-474 -579 0
578 -579 0
474 -578 579 0
-572 580 0
-579 580 0
572 579 -580 0
581 -583 0
582 -583 0
-581 -582 583 0
581 -584 0
-582 -584 0
-581 582 584 0
-583 585 0
-584 585 0
583 584 -585 0
585 -587 0
586 -587 0
-585 -586 587 0
585 -588 0
-586 -588 0
-585 586 588 0
-587 589 0
-588 589 0
587 588 -589 0
589 -592 0
-590 -592 0
591 -592 0
-589 590 -591 592 0
589 -593 0
-590 -593 0
-591 -593 0
-589 590 591 593 0
589 -595 0
590 -595 0
594 -595 0
-589 -590 -594 595 0
589 -596 0
590 -596 0
-594 -596 0
-589 -590 594 596 0
-592 597 0
-593 597 0
-595 597 0
-596 597 0
592 593 595 596 -597 0
597 -599 0
598 -599 0
-597 -598 599 0
597 -600 0
-598 -600 0
-597 598 600 0
-599 601 0
-600 601 0
599 600 -601 0
601 -603 0
602 -603 0
-601 -602 603 0
601 -605 0
-602 -605 0
604 -605 0
-601 602 -604 605 0
601 -607 0
-602 -607 0
-604 -607 0
606 -607 0
-601 602 604 -606 607 0
601 -609 0
-602 -609 0
-604 -609 0
-606 -609 0
608 -609 0
-601 602 604 606 -608 609 0
601 -612 0
-602 -612 0
-604 -612 0
-606 -612 0
-608 -612 0
610 -612 0
611 -612 0
-601 602 604 606 608 -610 -611 612 0
601 -613 0
-602 -613 0
-604 -613 0
-606 -613 0
-608 -613 0
610 -613 0
-611 -613 0
-601 602 604 606 608 -610 611 613 0
-612 614 0
-613 614 0
612 613 -614 0
614 -616 0
615 -616 0
-614 -615 616 0
614 -617 0
-615 -617 0
-614 615 617 0
-616 618 0
-617 618 0
616 617 -618 0
618 -620 0
619 -620 0
-618 -619 620 0
601 -622 0
-602 -622 0
-604 -622 0
-606 -622 0
-608 -622 0
-610 -622 0
621 -622 0
-601 602 604 606 608 610 -621 622 0
601 -623 0
-602 -623 0
-604 -623 0
-606 -623 0
-608 -623 0
-610 -623 0
-621 -623 0
-601 602 604 606 608 610 621 623 0
-622 624 0
-623 624 0
622 623 -624 0
624 -626 0
625 -626 0
-624 -625 626 0
624 -627 0
-625 -627 0
-624 625 627 0
-626 628 0
-627 628 0
626 627 -628 0
628 -630 0
629 -630 0
-628 -629 630 0
618 -631 0
-619 -631 0
-618 619 631 0
628 -632 0
-629 -632 0
-628 629 632 0
-620 633 0
-630 633 0
-631 633 0
-632 633 0
620 630 631 632 -633 0
633 -635 0
-634 -635 0
-633 634 635 0
633 -637 0
634 -637 0
636 -637 0
-633 -634 -636 637 0
633 -638 0
634 -638 0
-636 -638 0
-633 -634 636 638 0
581 639 0
-603 639 0
-605 639 0
-607 639 0
-609 639 0
-635 639 0
-637 639 0
-638 639 0
-581 603 605 607 609 635 637 638 -639 0
640 641 0
-640 641 0
641 -644 0
-642 -644 0
643 -644 0
-641 642 -643 644 0
641 -645 0
-642 -645 0
-643 -645 0
-641 642 643 645 0
641 -647 0
642 -647 0
646 -647 0
-641 -642 -646 647 0
641 -648 0
642 -648 0
-646 -648 0
-641 -642 646 648 0
-644 649 0
-645 649 0
-647 649 0
-648 649 0
644 645 647 648 -649 0
649 -651 0
650 -651 0
-649 -650 651 0
649 -652 0
-650 -652 0
-649 650 652 0
-651 653 0
-652 653 0
651 652 -653 0
580 -654 0
639 -654 0
653 -654 0
-580 -639 -653 654 0
-484 655 0
484 655 0
478 -656 0
655 -656 0
-478 -655 656 0
-656 657 0
478 657 0
656 -478 -657 0
657 -658 0
-493 -658 0
-657 493 658 0
657 -659 0
499 -659 0
500 -659 0
-657 -499 -500 659 0
657 -660 0
499 -660 0
-500 -660 0
502 -660 0
535 -660 0
-537 -660 0
-657 -499 500 -502 -535 537 660 0
657 -661 0
499 -661 0
-500 -661 0
502 -661 0
535 -661 0
537 -661 0
-657 -499 500 -502 -535 -537 661 0
657 -662 0
499 -662 0
-500 -662 0
502 -662 0
-535 -662 0
-657 -499 500 -502 535 662 0
657 -663 0
503 -663 0
-657 -503 663 0
657 -664 0
-503 -664 0
-657 503 664 0
-663 665 0
-664 665 0
663 664 -665 0
-506 666 0
-508 666 0
-511 666 0
-513 666 0
-515 666 0
-517 666 0
-519 666 0
-521 666 0
506 508 511 513 515 517 519 521 -666 0
665 -667 0
666 -667 0
-665 -666 667 0
665 -668 0
504 -668 0
505 -668 0
-507 -668 0
509 -668 0
-510 -668 0
512 -668 0
-518 -668 0
-520 -668 0
531 -668 0
-665 -504 -505 507 -509 510 -512 518 520 -531 668 0
-525 669 0
-526 669 0
525 526 -669 0
665 -670 0
669 -670 0
-665 -669 670 0
-667 671 0
-668 671 0
-670 671 0
667 668 670 -671 0
671 -672 0
499 -672 0
-500 -672 0
-502 -672 0
533 -672 0
-671 -499 500 502 -533 672 0
-660 673 0
-661 673 0
-662 673 0
-672 673 0
660 661 662 672 -673 0
673 -674 0
540 -674 0
541 -674 0
-673 -540 -541 674 0
673 -675 0
540 -675 0
-541 -675 0
-673 -540 541 675 0
-659 676 0
-674 676 0
-675 676 0
659 674 675 -676 0
676 -677 0
493 -677 0
497 -677 0
544 -677 0
546 -677 0
547 -677 0
-676 -493 -497 -544 -546 -547 677 0
676 -678 0
493 -678 0
497 -678 0
544 -678 0
546 -678 0
-547 -678 0
550 -678 0
-676 -493 -497 -544 -546 547 -550 678 0
-677 679 0
-678 679 0
677 678 -679 0
-554 680 0
-555 680 0
554 555 -680 0
679 -681 0
680 -681 0
-679 -680 681 0
-658 682 0
-681 682 0
658 681 -682 0
477 -683 0
682 -683 0
-477 -682 683 0
-477 -684 0
657 -684 0
477 -657 684 0
-683 685 0
-684 685 0
683 684 -685 0
685 -686 0
-560 -686 0
-685 560 686 0
685 -687 0
560 -687 0
-685 -560 687 0
-686 688 0
-687 688 0
686 687 -688 0
476 -689 0
688 -689 0
-476 -688 689 0
-476 -690 0
685 -690 0
476 -685 690 0
-689 691 0
-690 691 0
689 690 -691 0
691 -692 0
-565 -692 0
-691 565 692 0
691 -693 0
565 -693 0
-691 -565 693 0
-692 694 0
-693 694 0
692 693 -694 0
475 -695 0
694 -695 0
-475 -694 695 0
-475 -696 0
691 -696 0
475 -691 696 0
-695 697 0
-696 697 0
695 696 -697 0
697 -698 0
-570 -698 0
-697 570 698 0
697 -699 0
570 -699 0
-697 -570 699 0
-698 700 0
-699 700 0
698 699 -700 0
474 -701 0
700 -701 0
-474 -700 701 0
697 -702 0
-574 -702 0
-697 574 702 0
697 -703 0
574 -703 0
-697 -574 703 0
-702 704 0
-703 704 0
702 703 -704 0
573 -705 0
704 -705 0
-573 -704 705 0
-573 -706 0
697 -706 0
573 -697 706 0
-705 707 0
-706 707 0
705 706 -707 0
-474 -708 0
707 -708 0
474 -707 708 0
-701 709 0
-708 709 0
701 708 -709 0
709 -710 0
-581 -710 0
-709 581 710 0
709 -711 0
581 -711 0
582 -711 0
-709 -581 -582 711 0
709 -712 0
581 -712 0
-582 -712 0
-709 -581 582 712 0
-711 713 0
-712 713 0
711 712 -713 0
713 -714 0
585 -714 0
586 -714 0
-713 -585 -586 714 0
713 -715 0
585 -715 0
-586 -715 0
-713 -585 586 715 0
-714 716 0
-715 716 0
714 715 -716 0
716 -717 0
597 -717 0
598 -717 0
-716 -597 -598 717 0
716 -718 0
597 -718 0
-598 -718 0
-716 -597 598 718 0
-717 719 0
-718 719 0
717 718 -719 0
-603 720 0
-605 720 0
-607 720 0
-609 720 0
603 605 607 609 -720 0
719 -721 0
720 -721 0
-719 -720 721 0
719 -722 0
601 -722 0
-602 -722 0
-604 -722 0
-606 -722 0
-608 -722 0
-610 -722 0
621 -722 0
-719 -601 602 604 606 608 610 -621 722 0
719 -723 0
601 -723 0
-602 -723 0
-604 -723 0
-606 -723 0
-608 -723 0
-610 -723 0
-621 -723 0
-719 -601 602 604 606 608 610 621 723 0
-722 724 0
-723 724 0
722 723 -724 0
724 -725 0
624 -725 0
625 -725 0
-724 -624 -625 725 0
724 -726 0
624 -726 0
-625 -726 0
-724 -624 625 726 0
-725 727 0
-726 727 0
725 726 -727 0
727 -728 0
628 -728 0
629 -728 0
-727 -628 -629 728 0
727 -729 0
628 -729 0
-629 -729 0
-727 -628 629 729 0
719 -730 0
601 -730 0
-602 -730 0
-604 -730 0
-606 -730 0
-608 -730 0
610 -730 0
611 -730 0
-719 -601 602 604 606 608 -610 -611 730 0
719 -731 0
601 -731 0
-602 -731 0
-604 -731 0
-606 -731 0
-608 -731 0
610 -731 0
-611 -731 0
-719 -601 602 604 606 608 -610 611 731 0
-730 732 0
-731 732 0
730 731 -732 0
732 -733 0
614 -733 0
615 -733 0
-732 -614 -615 733 0
732 -734 0
614 -734 0
-615 -734 0
-732 -614 615 734 0
-733 735 0
-734 735 0
733 734 -735 0
735 -736 0
618 -736 0
619 -736 0
-735 -618 -619 736 0
735 -737 0
618 -737 0
-619 -737 0
-735 -618 619 737 0
-728 738 0
-729 738 0
-736 738 0
-737 738 0
728 729 736 737 -738 0
-637 739 0
-638 739 0
637 638 -739 0
-635 740 0
-739 740 0
635 739 -740 0
738 -741 0
740 -741 0
-738 -740 741 0
-710 742 0
-721 742 0
-741 742 0
710 721 741 -742 0
742 -743 0
-640 -743 0
-742 640 743 0
742 -744 0
640 -744 0
-742 -640 744 0
-743 745 0
-744 745 0
743 744 -745 0
-484 746 0
484 746 0
478 -747 0
746 -747 0
-478 -746 747 0
-747 748 0
478 748 0
747 -478 -748 0
748 -749 0
-493 -749 0
-748 493 749 0
748 -750 0
499 -750 0
500 -750 0
-748 -499 -500 750 0
748 -751 0
499 -751 0
-500 -751 0
502 -751 0
535 -751 0
-537 -751 0
-748 -499 500 -502 -535 537 751 0
748 -752 0
499 -752 0
-500 -752 0
502 -752 0
535 -752 0
537 -752 0
-748 -499 500 -502 -535 -537 752 0
748 -753 0
499 -753 0
-500 -753 0
502 -753 0
-535 -753 0
-748 -499 500 -502 535 753 0
748 -754 0
503 -754 0
-748 -503 754 0
748 -755 0
-503 -755 0
-748 503 755 0
-754 756 0
-755 756 0
754 755 -756 0
-506 757 0
-508 757 0
-511 757 0
-513 757 0
-515 757 0
-517 757 0
-519 757 0
-521 757 0
506 508 511 513 515 517 519 521 -757 0
756 -758 0
757 -758 0
-756 -757 758 0
756 -759 0
504 -759 0
505 -759 0
-507 -759 0
509 -759 0
-510 -759 0
512 -759 0
-518 -759 0
-520 -759 0
531 -759 0
-756 -504 -505 507 -509 510 -512 518 520 -531 759 0
756 -760 0
669 -760 0
-756 -669 760 0
-758 761 0
-759 761 0
-760 761 0
758 759 760 -761 0
761 -762 0
499 -762 0
-500 -762 0
-502 -762 0
533 -762 0
-761 -499 500 502 -533 762 0
-751 763 0
-752 763 0
-753 763 0
-762 763 0
751 752 753 762 -763 0
763 -764 0
540 -764 0
541 -764 0
-763 -540 -541 764 0
763 -765 0
540 -765 0
-541 -765 0
-763 -540 541 765 0
-750 766 0
-764 766 0
-765 766 0
750 764 765 -766 0
766 -767 0
493 -767 0
497 -767 0
544 -767 0
546 -767 0
547 -767 0
-766 -493 -497 -544 -546 -547 767 0
766 -768 0
493 -768 0
497 -768 0
544 -768 0
546 -768 0
-547 -768 0
550 -768 0
-766 -493 -497 -544 -546 547 -550 768 0
-767 769 0
-768 769 0
767 768 -769 0
769 -770 0
680 -770 0
-769 -680 770 0
-749 771 0
-770 771 0
749 770 -771 0
477 -772 0
771 -772 0
-477 -771 772 0
-477 -773 0
748 -773 0
477 -748 773 0
-772 774 0
-773 774 0
772 773 -774 0
774 -775 0
-560 -775 0
-774 560 775 0
774 -776 0
560 -776 0
-774 -560 776 0
-775 777 0
-776 777 0
775 776 -777 0
476 -778 0
777 -778 0
-476 -777 778 0
-476 -779 0
774 -779 0
476 -774 779 0
-778 780 0
-779 780 0
778 779 -780 0
780 -781 0
-565 -781 0
-780 565 781 0
780 -782 0
565 -782 0
-780 -565 782 0
-781 783 0
-782 783 0
781 782 -783 0
475 -784 0
783 -784 0
-475 -783 784 0
-475 -785 0
780 -785 0
475 -780 785 0
-784 786 0
-785 786 0
784 785 -786 0
786 -787 0
-570 -787 0
-786 570 787 0
786 -788 0
570 -788 0
-786 -570 788 0
-787 789 0
-788 789 0
787 788 -789 0
474 -790 0
789 -790 0
-474 -789 790 0
786 -791 0
-574 -791 0
-786 574 791 0
786 -792 0
574 -792 0
-786 -574 792 0
-791 793 0
-792 793 0
791 792 -793 0
573 -794 0
793 -794 0
-573 -793 794 0
-573 -795 0
786 -795 0
573 -786 795 0
-794 796 0
-795 796 0
794 795 -796 0
-474 -797 0
796 -797 0
474 -796 797 0
-790 798 0
-797 798 0
790 797 -798 0
798 -799 0
-581 -799 0
-798 581 799 0
798 -800 0
581 -800 0
582 -800 0
-798 -581 -582 800 0
798 -801 0
581 -801 0
-582 -801 0
-798 -581 582 801 0
-800 802 0
-801 802 0
800 801 -802 0
802 -803 0
585 -803 0
586 -803 0
-802 -585 -586 803 0
802 -804 0
585 -804 0
-586 -804 0
-802 -585 586 804 0
-803 805 0
-804 805 0
803 804 -805 0
805 -806 0
597 -806 0
598 -806 0
-805 -597 -598 806 0
805 -807 0
597 -807 0
-598 -807 0
-805 -597 598 807 0
-806 808 0
-807 808 0
806 807 -808 0
-603 809 0
-605 809 0
-607 809 0
-609 809 0
603 605 607 609 -809 0
808 -810 0
809 -810 0
-808 -809 810 0
808 -811 0
601 -811 0
-602 -811 0
-604 -811 0
-606 -811 0
-608 -811 0
-610 -811 0
621 -811 0
-808 -601 602 604 606 608 610 -621 811 0
808 -812 0
601 -812 0
-602 -812 0
-604 -812 0
-606 -812 0
-608 -812 0
-610 -812 0
-621 -812 0
-808 -601 602 604 606 608 610 621 812 0
-811 813 0
-812 813 0
811 812 -813 0
813 -814 0
624 -814 0
625 -814 0
-813 -624 -625 814 0
813 -815 0
624 -815 0
-625 -815 0
-813 -624 625 815 0
-814 816 0
-815 816 0
814 815 -816 0
816 -817 0
628 -817 0
629 -817 0
-816 -628 -629 817 0
816 -818 0
628 -818 0
-629 -818 0
-816 -628 629 818 0
808 -819 0
601 -819 0
-602 -819 0
-604 -819 0
-606 -819 0
-608 -819 0
610 -819 0
611 -819 0
-808 -601 602 604 606 608 -610 -611 819 0
808 -820 0
601 -820 0
-602 -820 0
-604 -820 0
-606 -820 0
-608 -820 0
610 -820 0
-611 -820 0
-808 -601 602 604 606 608 -610 611 820 0
-819 821 0
-820 821 0
819 820 -821 0
821 -822 0
614 -822 0
615 -822 0
-821 -614 -615 822 0
821 -823 0
614 -823 0
-615 -823 0
-821 -614 615 823 0
-822 824 0
-823 824 0
822 823 -824 0
824 -825 0
618 -825 0
619 -825 0
-824 -618 -619 825 0
824 -826 0
618 -826 0
-619 -826 0
-824 -618 619 826 0
-817 827 0
-818 827 0
-825 827 0
-826 827 0
817 818 825 826 -827 0
-635 828 0
-739 828 0
635 739 -828 0
827 -829 0
828 -829 0
-827 -828 829 0
-799 830 0
-810 830 0
-829 830 0
799 810 829 -830 0
830 -831 0
-640 -831 0
-830 640 831 0
830 -832 0
640 -832 0
-830 -640 832 0
-831 833 0
-832 833 0
831 832 -833 0
-745 -362 -834 0
745 362 -834 0
-745 362 834 0
745 -362 834 0
-833 -473 -835 0
833 473 -835 0
-833 473 835 0
833 -473 835 0
-834 -836 0
-835 -836 0
654 -836 0
834 835 -654 836 0
-246 836 0
